certificates/rado_a9_c267_N31.drat
-30 -31 0
-31 0
19 0
30 0
-27 0
-16 0
-22 0
3 0
15 0
7 0
4 0
28 0
10 0
29 0
-6 0
-12 0
-18 0
0
